Version identifier: 22.1.1.0 | 2022-11-28 | 9160aff4d
CPXPARAM_ClockType                               1
CPXPARAM_Read_DataCheck                          1
CPXPARAM_Threads                                 1
CPXPARAM_TimeLimit                               7200
CPXPARAM_MIP_Tolerances_AbsMIPGap                0
CPXPARAM_MIP_Tolerances_MIPGap                   0
CPXPARAM_MIP_Tolerances_Integrality              0
Tried aggregator 5 times.
MIP Presolve eliminated 5136 rows and 1642 columns.
MIP Presolve modified 2 coefficients.
Aggregator did 491 substitutions.
Reduced MIP has 1626 rows, 939 columns, and 4560 nonzeros.
Reduced MIP has 939 binaries, 0 generals, 0 SOSs, and 0 indicators.
Presolve time = 0.01 sec. (11.63 ticks)
Found incumbent of value 0.000000 after 0.01 sec. (13.35 ticks)
Probing time = 0.01 sec. (2.67 ticks)
Tried aggregator 1 time.
Detecting symmetries...
MIP Presolve eliminated 7 rows and 4 columns.
MIP Presolve modified 2 coefficients.
Reduced MIP has 1619 rows, 935 columns, and 4539 nonzeros.
Reduced MIP has 935 binaries, 0 generals, 0 SOSs, and 0 indicators.
Presolve time = 0.01 sec. (5.00 ticks)
Probing time = 0.01 sec. (2.61 ticks)
Clique table members: 3255.
MIP emphasis: balance optimality and feasibility.
MIP search method: dynamic search.
Parallel mode: none, using 1 thread.
Root relaxation solution time = 0.00 sec. (2.04 ticks)

        Nodes                                         Cuts/
   Node  Left     Objective  IInf  Best Integer    Best Bound    ItCnt     Gap

*     0+    0                            0.0000      188.0000              --- 
      0     0      188.0000   175        0.0000      188.0000       12     --- 
*     0+    0                          188.0000      188.0000             0.00%
      0     0        cutoff            188.0000      188.0000       12    0.00%
Elapsed time = 0.04 sec. (30.20 ticks, tree = 0.01 MB, solutions = 2)

Root node processing (before b&c):
  Real time             =    0.04 sec. (30.31 ticks)
Sequential b&c:
  Real time             =    0.00 sec. (0.00 ticks)
                          ------------
Total (root+branch&cut) =    0.04 sec. (30.31 ticks)
Solution is feasible.

---------------------
@@@ MIP_optimal
>>> Benchmark mc2024_track1_184.cnf k 2 OPT 188 TimeCost 0.5429267883300781 TimeSolve 0.05224418640136719 TimeRead 0.005738019943237305 TimeTrans 0.48494458198547363
